NAME PortOpt_n10_m4_inst_4
ROWS
 N  OBJ
 E  budget  
 G  return  
 L  uncertain_risk
 L  fixed_risk
COLUMNS
    asset[0]  budget    1
    asset[0]  return    3.9183513883526317e+000
    asset[1]  budget    1
    asset[1]  return    4.5986561568689552e+000
    asset[2]  budget    1
    asset[2]  return    3.3703022518829253e+000
    asset[3]  budget    1
    asset[3]  return    2.7507346018859731e+000
    asset[4]  budget    1
    asset[4]  return    1.9386433317857481e+000
    asset[5]  budget    1
    asset[5]  return    1.5120099276368768e+000
    asset[6]  budget    1
    asset[6]  return    2.6000048390132626e+000
    asset[7]  budget    1
    asset[7]  return    2.4547233727059443e+000
    asset[8]  budget    1
    asset[8]  return    3.3172642313797764e+000
    asset[9]  budget    1
    asset[9]  return    4.8274247859050226e+000
    return_var  OBJ       -1
    return_var  return    -1
    uncertain_risk_var  OBJ       1
    uncertain_risk_var  uncertain_risk  -1
    fixed_risk_var  OBJ       1
    fixed_risk_var  fixed_risk  -1
RHS
    RHS1      budget    1
BOUNDS
QCMATRIX   uncertain_risk
    asset[0]  asset[0]  2.5530220082005568e-002
    asset[0]  asset[1]  -8.8916608805923100e-003
    asset[1]  asset[0]  -8.8916608805923100e-003
    asset[0]  asset[2]  5.6716406332047433e-003
    asset[2]  asset[0]  5.6716406332047433e-003
    asset[0]  asset[3]  2.5093512560323591e-002
    asset[3]  asset[0]  2.5093512560323591e-002
    asset[0]  asset[4]  1.3090646062233454e-002
    asset[4]  asset[0]  1.3090646062233454e-002
    asset[0]  asset[5]  5.5299919111493354e-003
    asset[5]  asset[0]  5.5299919111493354e-003
    asset[0]  asset[6]  1.1242243501666676e-002
    asset[6]  asset[0]  1.1242243501666676e-002
    asset[0]  asset[7]  -2.7308538890723748e-002
    asset[7]  asset[0]  -2.7308538890723748e-002
    asset[0]  asset[8]  -7.0648245193843627e-003
    asset[8]  asset[0]  -7.0648245193843627e-003
    asset[0]  asset[9]  -2.1443556381297711e-002
    asset[9]  asset[0]  -2.1443556381297711e-002
    asset[1]  asset[1]  4.8427974647707671e-002
    asset[1]  asset[2]  -5.3633470893535075e-002
    asset[2]  asset[1]  -5.3633470893535075e-002
    asset[1]  asset[3]  2.4279156037911715e-002
    asset[3]  asset[1]  2.4279156037911715e-002
    asset[1]  asset[4]  -5.1261347567700642e-003
    asset[4]  asset[1]  -5.1261347567700642e-003
    asset[1]  asset[5]  -5.4928908263871135e-003
    asset[5]  asset[1]  -5.4928908263871135e-003
    asset[1]  asset[6]  -4.1885072486129424e-002
    asset[6]  asset[1]  -4.1885072486129424e-002
    asset[1]  asset[7]  3.1107022891958519e-002
    asset[7]  asset[1]  3.1107022891958519e-002
    asset[1]  asset[8]  2.9451898578682252e-002
    asset[8]  asset[1]  2.9451898578682252e-002
    asset[1]  asset[9]  -1.7857301722106617e-002
    asset[9]  asset[1]  -1.7857301722106617e-002
    asset[2]  asset[2]  7.3267753629159868e-002
    asset[2]  asset[3]  -5.0971381112549889e-002
    asset[3]  asset[2]  -5.0971381112549889e-002
    asset[2]  asset[4]  2.3012376023562757e-002
    asset[4]  asset[2]  2.3012376023562757e-002
    asset[2]  asset[5]  1.3318695501770709e-002
    asset[5]  asset[2]  1.3318695501770709e-002
    asset[2]  asset[6]  6.4440054165692096e-002
    asset[6]  asset[2]  6.4440054165692096e-002
    asset[2]  asset[7]  -1.7259903657943450e-002
    asset[7]  asset[2]  -1.7259903657943450e-002
    asset[2]  asset[8]  -3.1029254897510516e-002
    asset[8]  asset[2]  -3.1029254897510516e-002
    asset[2]  asset[9]  2.8411947979673974e-002
    asset[9]  asset[2]  2.8411947979673974e-002
    asset[3]  asset[3]  1.1258821694070248e-001
    asset[3]  asset[4]  -8.6259136423993913e-003
    asset[4]  asset[3]  -8.6259136423993913e-003
    asset[3]  asset[5]  -1.2798494079691265e-002
    asset[5]  asset[3]  -1.2798494079691265e-002
    asset[3]  asset[6]  -6.2686799313087210e-002
    asset[6]  asset[3]  -6.2686799313087210e-002
    asset[3]  asset[7]  -4.3698148246732328e-002
    asset[7]  asset[3]  -4.3698148246732328e-002
    asset[3]  asset[8]  1.6871583042995804e-002
    asset[8]  asset[3]  1.6871583042995804e-002
    asset[3]  asset[9]  -5.1834085197024371e-002
    asset[9]  asset[3]  -5.1834085197024371e-002
    asset[4]  asset[4]  3.6848130502367168e-002
    asset[4]  asset[5]  1.3992172697388117e-002
    asset[5]  asset[4]  1.3992172697388117e-002
    asset[4]  asset[6]  3.0258049758505511e-002
    asset[6]  asset[4]  3.0258049758505511e-002
    asset[4]  asset[7]  3.0839000793112283e-003
    asset[7]  asset[4]  3.0839000793112283e-003
    asset[4]  asset[8]  -8.9569498240452356e-004
    asset[8]  asset[4]  -8.9569498240452356e-004
    asset[4]  asset[9]  -5.4425383701438767e-003
    asset[9]  asset[4]  -5.4425383701438767e-003
    asset[5]  asset[5]  6.8348117606757920e-003
    asset[5]  asset[6]  1.8966116204997878e-002
    asset[6]  asset[5]  1.8966116204997878e-002
    asset[5]  asset[7]  2.0583764887215045e-003
    asset[7]  asset[5]  2.0583764887215045e-003
    asset[5]  asset[8]  -3.5319680230843659e-003
    asset[8]  asset[5]  -3.5319680230843659e-003
    asset[5]  asset[9]  6.6281986500731614e-004
    asset[9]  asset[5]  6.6281986500731614e-004
    asset[6]  asset[6]  7.3348033215979935e-002
    asset[6]  asset[7]  -4.0946325343302250e-003
    asset[7]  asset[6]  -4.0946325343302250e-003
    asset[6]  asset[8]  -2.7030186918641386e-002
    asset[8]  asset[6]  -2.7030186918641386e-002
    asset[6]  asset[9]  2.1097409589426970e-002
    asset[9]  asset[6]  2.1097409589426970e-002
    asset[7]  asset[7]  5.8005448854572046e-002
    asset[7]  asset[8]  1.9559562906411278e-002
    asset[8]  asset[7]  1.9559562906411278e-002
    asset[7]  asset[9]  1.7486744000971811e-002
    asset[9]  asset[7]  1.7486744000971811e-002
    asset[8]  asset[8]  1.9145806869602475e-002
    asset[8]  asset[9]  -9.7218888491394616e-003
    asset[9]  asset[8]  -9.7218888491394616e-003
    asset[9]  asset[9]  3.4592009901431506e-002
QCMATRIX   fixed_risk
    asset[0]  asset[0]  2.5888842254884275e-003
    asset[1]  asset[1]  4.9007619165815424e-003
    asset[2]  asset[2]  7.3041909172943554e-003
    asset[3]  asset[3]  1.0853718695071429e-002
    asset[4]  asset[4]  3.3284690341619638e-003
    asset[5]  asset[5]  7.4876830437093983e-004
    asset[6]  asset[6]  7.2326106484058980e-003
    asset[7]  asset[7]  6.4254049381310858e-003
    asset[8]  asset[8]  1.7635728206585135e-003
    asset[9]  asset[9]  3.4236630839933040e-003
ENDATA
